
Gurobi 9.1.1 (win64, Java) logging started Fri Apr 23 17:19:35 2021

Academic license - for non-commercial use only - expires 2021-06-22
Gurobi Optimizer version 9.1.1 build v9.1.1rc0 (win64)
Thread count: 4 physical cores, 8 logical processors, using up to 8 threads
Optimize a model with 470715 rows, 8203890 columns and 15331760 nonzeros
Model fingerprint: 0x7cfdde26
Variable types: 0 continuous, 8203890 integer (8203890 binary)
Coefficient statistics:
  Matrix range     [1e+00, 1e+00]
  Objective range  [0e+00, 0e+00]
  Bounds range     [1e+00, 1e+00]
  RHS range        [1e+00, 2e+00]
Presolve removed 336230 rows and 8072939 columns (presolve time = 6s) ...
Presolve removed 470715 rows and 8203890 columns
Presolve time: 7.00s
Presolve: All rows and columns removed

Explored 0 nodes (0 simplex iterations) in 9.76 seconds
Thread count was 1 (of 8 available processors)

Solution count 1: 0 

Optimal solution found (tolerance 1.00e-04)
Best objective 0.000000000000e+00, best bound 0.000000000000e+00, gap 0.0000%

Gurobi 9.1.1 (win64, Java) logging started Fri Apr 23 17:27:16 2021

Academic license - for non-commercial use only - expires 2021-06-22
Gurobi Optimizer version 9.1.1 build v9.1.1rc0 (win64)
Thread count: 4 physical cores, 8 logical processors, using up to 8 threads
Optimize a model with 470715 rows, 8203890 columns and 15331760 nonzeros
Model fingerprint: 0x7cfdde26
Variable types: 0 continuous, 8203890 integer (8203890 binary)
Coefficient statistics:
  Matrix range     [1e+00, 1e+00]
  Objective range  [0e+00, 0e+00]
  Bounds range     [1e+00, 1e+00]
  RHS range        [1e+00, 2e+00]
Presolve removed 336230 rows and 8072939 columns (presolve time = 6s) ...
Presolve removed 470715 rows and 8203890 columns
Presolve time: 7.16s
Presolve: All rows and columns removed

Explored 0 nodes (0 simplex iterations) in 9.90 seconds
Thread count was 1 (of 8 available processors)

Solution count 1: 0 

Optimal solution found (tolerance 1.00e-04)
Best objective 0.000000000000e+00, best bound 0.000000000000e+00, gap 0.0000%

Gurobi 9.1.1 (win64, Java) logging started Fri Apr 23 18:35:06 2021

Academic license - for non-commercial use only - expires 2021-06-22

Gurobi 9.1.1 (win64, Java) logging started Fri Apr 23 18:35:56 2021

Academic license - for non-commercial use only - expires 2021-06-22

Gurobi 9.1.1 (win64, Java) logging started Fri Apr 23 18:39:41 2021

Academic license - for non-commercial use only - expires 2021-06-22

Gurobi 9.1.1 (win64, Java) logging started Fri Apr 23 18:43:58 2021

Academic license - for non-commercial use only - expires 2021-06-22

Gurobi 9.1.1 (win64, Java) logging started Sat Apr 24 10:19:07 2021

Academic license - for non-commercial use only - expires 2021-06-22

Gurobi 9.1.1 (win64, Java) logging started Sat Apr 24 10:24:42 2021

Academic license - for non-commercial use only - expires 2021-06-22

Gurobi 9.1.1 (win64, Java) logging started Sat Apr 24 10:53:20 2021

Academic license - for non-commercial use only - expires 2021-06-22

Gurobi 9.1.1 (win64, Java) logging started Sat Apr 24 10:55:21 2021

Academic license - for non-commercial use only - expires 2021-06-22

Gurobi 9.1.1 (win64, Java) logging started Sat Apr 24 10:55:48 2021

Academic license - for non-commercial use only - expires 2021-06-22

Gurobi 9.1.1 (win64, Java) logging started Sat Apr 24 10:56:41 2021

Academic license - for non-commercial use only - expires 2021-06-22

Gurobi 9.1.1 (win64, Java) logging started Sat Apr 24 11:00:38 2021

Academic license - for non-commercial use only - expires 2021-06-22

Gurobi 9.1.1 (win64, Java) logging started Sat Apr 24 11:02:51 2021

Academic license - for non-commercial use only - expires 2021-06-22

Gurobi 9.1.1 (win64, Java) logging started Sat Apr 24 11:03:03 2021

Academic license - for non-commercial use only - expires 2021-06-22

Gurobi 9.1.1 (win64, Java) logging started Sat Apr 24 11:04:06 2021

Academic license - for non-commercial use only - expires 2021-06-22

Gurobi 9.1.1 (win64, Java) logging started Sat Apr 24 11:05:49 2021

Academic license - for non-commercial use only - expires 2021-06-22

Gurobi 9.1.1 (win64, Java) logging started Sat Apr 24 11:06:11 2021

Academic license - for non-commercial use only - expires 2021-06-22

Gurobi 9.1.1 (win64, Java) logging started Sat Apr 24 11:06:17 2021

Academic license - for non-commercial use only - expires 2021-06-22
